inputs/128.in
12
0 63 92 61 70 25 39 58 33 37 85 35 
63 0 23 82 42 31 3 97 51 86 26 37 
92 23 0 73 10 63 11 93 45 39 93 69 
61 82 73 0 28 84 23 93 81 28 100 26 
70 42 10 28 0 55 19 4 51 72 12 2 
25 31 63 84 55 0 99 9 7 37 68 99 
39 3 11 23 19 99 0 40 22 57 35 86 
58 97 93 93 4 9 40 0 3 68 32 46 
33 51 45 81 51 7 22 3 0 50 15 31 
37 86 39 28 72 37 57 68 50 0 55 12 
85 26 93 100 12 68 35 32 15 55 0 2 
35 37 69 26 2 99 86 46 31 12 2 0 
BBRBRBRRRBRB
