output/128.out
15 48 7 39 13 6 42 19 34 1 5 26 41 46 10 45 20 31 23 32 18 21 30 22 11 17 24 36 14 2 8 12 29 33 43 38 50 27 37 28 16 3 35 49 40 47 4 25 9 44 
